
Gurobi 6.5.2 (linux64) logging started Sun Sep 18 18:43:06 2016


Gurobi 6.5.2 (linux64) logging started Sun Sep 18 18:43:06 2016

Optimize a model with 101 rows, 908 columns and 2087 nonzeros
Coefficient statistics:
  Matrix range    [1e+00, 2e+00]
  Objective range [2e+00, 1e+02]
  Bounds range    [1e+00, 1e+00]
  RHS range       [1e+00, 1e+00]
Presolve removed 31 rows and 1 columns
Presolve time: 0.00s
Presolved: 70 rows, 907 columns, 1875 nonzeros
Variable types: 0 continuous, 907 integer (907 binary)

Root relaxation: objective 6.830000e+02, 75 iterations, 0.00 seconds

    Nodes    |    Current Node    |     Objective Bounds      |     Work
 Expl Unexpl |  Obj  Depth IntInf | Incumbent    BestBd   Gap | It/Node Time

     0     0  683.00000    0   18          -  683.00000      -     -    0s
     0     0  690.50000    0    6          -  690.50000      -     -    0s
     0     0  691.00000    0    4          -  691.00000      -     -    0s
     0     0  691.04255    0   22          -  691.04255      -     -    0s
     0     0  691.04255    0   22          -  691.04255      -     -    0s
     0     2  691.04255    0   22          -  691.04255      -     -    0s
*  782   630              68     799.0000000  692.00000  13.4%   3.2    0s
* 2094  1259              80     786.0000000  693.20000  11.8%   4.1    1s
* 2855  1570              93     785.0000000  693.50000  11.7%   4.1    2s
* 2910  1362              28     755.0000000  694.50000  8.01%   4.1    2s
* 3050  1292              40     752.0000000  695.00000  7.58%   4.1    2s
* 3822  1357              34     729.0000000  696.00000  4.53%   4.0    2s
* 4167  1075              30     719.0000000  696.66667  3.11%   4.0    2s
* 5198   780              32     712.0000000  699.00000  1.83%   3.9    2s
* 5907   452              33     709.0000000  700.00000  1.27%   3.9    2s

Cutting planes:
  Gomory: 12
  Cover: 9
  Flow cover: 1
  Zero half: 6
  Lazy constraints: 471

Explored 6907 nodes (26527 simplex iterations) in 2.91 seconds
Thread count was 8 (of 8 available processors)

Optimal solution found (tolerance 1.00e-04)
Best objective 7.090000000000e+02, best bound 7.090000000000e+02, gap 0.0%
